IntegratedHealthCareS/slot.lp
\LP file generated from the problem `Slots selection' by the
\Xpress Builder Component Library Xpress BCL

Minimize
obj: 1.00006e+006 WR_(0) + 1.00008e+006 WR_(1) + 128 WR_(2) + 234 WR_(3) + 159 WR_(4) + 
1.00003e+006 WR_(5) + 1.00006e+006 WR_(6) + 1.00006e+006 WR_(7) + 212 WR_(8) + 
1.00003e+006 WR_(9) + 1.00003e+006 WR_(10) + 287 WR_(11) + 1.00006e+006 WR_(12) + 
1.00012e+006 WR_(13) + 258 WR_(14) + 1.00006e+006 WR_(15) + 279 WR_(16) + 1.00003e+006 WR_(17) + 
1.00006e+006 WR_(18) + 1.00009e+006 WR_(19) + 166 WR_(20) + 168 WR_(21) + 265 WR_(22) + 
1.00006e+006 WR_(23) + 172 WR_(24) + 1.00009e+006 WR_(25) + 282 WR_(26) + 195 WR_(27) + 
1.00008e+006 WR_(28) + 222 WR_(29) + 167 WR_(30) + 159 WR_(31) + 152 WR_(32) + 
193 WR_(33) + 181 WR_(34) + 1.00003e+006 WR_(35) + 122 WR_(36) + 190 WR_(37) + 
139 WR_(38) + 111 WR_(39) + 139 WR_(40) + 175 WR_(41) + 92 WR_(42) + 185 WR_(43) + 
163 WR_(44) + 131 WR_(45) + 132 WR_(46) + 1.00009e+006 WR_(47) + 1.00003e+006 WR_(48) + 
1.00008e+006 WR_(49) + 1.00009e+006 WR_(50) + 1.00008e+006 WR_(51) + 1.00003e+006 WR_(52) + 
1.00003e+006 WR_(53) + 1.00008e+006 WR_(54) + 1.00006e+006 WR_(55) + 1.00009e+006 WR_(56) + 
1.00012e+006 WR_(57) + 1.00009e+006 WR_(58) + 1.00006e+006 WR_(59) + 1.00008e+006 WR_(60) + 
1.00008e+006 WR_(61) + 1.00003e+006 WR_(62) + 1.00008e+006 WR_(63) + 1.00006e+006 WR_(64) + 
1.00006e+006 WR_(65) + 1.00003e+006 WR_(66) + 1.00003e+006 WR_(67) + 1.00006e+006 WR_(68) + 
1.00006e+006 WR_(69) + 1.00009e+006 WR_(70) + 1.00009e+006 WR_(71) + 1.00008e+006 WR_(72) + 
1.00005e+006 WR_(73) + 1.00003e+006 WR_(74) + 1.00003e+006 WR_(75) + 1.00008e+006 WR_(76) + 
1.00005e+006 WR_(77) + 1.00003e+006 WR_(78) + 1.00009e+006 WR_(79) + 1.00008e+006 WR_(80) + 
1.00003e+006 WR_(81) + 1.00012e+006 WR_(82) + 1.00008e+006 WR_(83) + 1.00006e+006 WR_(84) + 
1.00012e+006 WR_(85) + 1.00012e+006 WR_(86) + 1.00006e+006 WR_(87) + 1.00009e+006 WR_(88) + 
1.00005e+006 WR_(89) + 1.00003e+006 WR_(90) + 1.00006e+006 WR_(91) + 1.00003e+006 WR_(92) + 
1.00009e+006 WR_(93) + 1.00003e+006 WR_(94) + 1.00008e+006 WR_(95) + 1.00003e+006 WR_(96) + 
1.00008e+006 WR_(97) + 1.00006e+006 WR_(98) + 1.00006e+006 WR_(99) + 1.00006e+006 WR_(100) + 
1.00006e+006 WR_(101) + 1.00006e+006 WR_(102) + 1.00008e+006 WR_(103) + 1.00009e+006 WR_(104) + 
1.00012e+006 WR_(105) + 1.00006e+006 WR_(106) + 1.00003e+006 WR_(107) + 1.00006e+006 WR_(108) + 
1.00009e+006 WR_(109) + 1.00008e+006 WR_(110) + 1.00003e+006 WR_(111) + 1.00003e+006 WR_(112) + 
1.00012e+006 WR_(113) + 1.00003e+006 WR_(114) + 1.00003e+006 WR_(115)

Subject To
slot_124: = 0
slot_123: = 0
slot_122: = 0
slot_121: = 0
slot_120: = 0
slot_119: = 0
slot_118: = 0
slot_117: = 0
slot_116: = 0
slot_115: = 0
slot_114: = 0
slot_113: = 0
slot_112: = 0
slot_111: = 0
slot_110: = 0
slot_109: = 0
slot_108: = 0
slot_107: = 0
slot_106: = 0
slot_105: = 0
slot_104: = 0
slot_103: = 0
slot_102: = 0
slot_101: = 0
slot_100: = 0
slot_99: = 0
slot_98: = 0
slot_97: = 0
slot_96: = 0
slot_95: = 0
slot_94: = 0
slot_93: = 0
slot_92: = 0
slot_91: = 0
slot_90: = 0
slot_89: = 0
slot_88: = 0
slot_87: = 0
slot_86: = 0
slot_85: = 0
slot_84: = 0
slot_83: = 0
slot_82: = 0
slot_81: = 0
slot_80: = 0
slot_79: = 0
slot_78: = 0
slot_77: = 0
slot_76: = 0
slot_75: = 0
slot_74: = 0
slot_73: = 0
slot_72: = 0
slot_71: = 0
slot_70: = 0
slot_69: = 0
slot_68: = 0
slot_67: = 0
slot_66: = 0
slot_65: = 0
slot_64: = 0
slot_63: = 0
slot_62: = 0
slot_61: = 0
slot_60: = 0
slot_59: = 0
slot_58: WR_(46) + WR_(115) = 1
slot_57: WR_(29) + WR_(114) = 1
slot_56: WR_(43) + WR_(57) + WR_(113) = 1
slot_55: WR_(45) + WR_(112) = 1
slot_54: WR_(8) + WR_(44) + WR_(111) = 1
slot_53: WR_(22) + WR_(28) + WR_(110) = 1
slot_52: WR_(24) + WR_(56) + WR_(109) = 1
slot_51: WR_(11) + WR_(43) + WR_(108) = 1
slot_50: WR_(42) + WR_(107) = 1
slot_49: WR_(27) + WR_(106) = 1
slot_48: WR_(26) + WR_(105) = 1
slot_47: WR_(16) + WR_(25) + WR_(104) = 1
slot_46: WR_(24) + WR_(103) = 1
slot_45: WR_(26) + WR_(32) + WR_(42) + WR_(55) + WR_(102) = 1
slot_44: WR_(23) + WR_(38) + WR_(101) = 1
slot_43: WR_(22) + WR_(100) = 1
slot_42: WR_(21) + WR_(99) = 1
slot_41: WR_(20) + WR_(98) = 1
slot_40: WR_(3) + WR_(54) + WR_(97) = 1
slot_39: WR_(53) + WR_(96) = 1
slot_38: WR_(41) + WR_(95) = 1
slot_37: WR_(40) + WR_(94) = 1
slot_36: WR_(2) + WR_(4) + WR_(19) + WR_(93) = 1
slot_35: WR_(52) + WR_(92) = 1
slot_34: WR_(18) + WR_(20) + WR_(21) + WR_(33) + WR_(45) + WR_(46) + WR_(91) = 1
slot_33: WR_(17) + WR_(90) = 1
slot_32: WR_(39) + WR_(89) = 1
slot_31: WR_(16) + WR_(88) = 1
slot_30: WR_(15) + WR_(29) + WR_(40) + WR_(87) = 1
slot_29: WR_(14) + WR_(86) = 1
slot_28: WR_(13) + WR_(85) = 1
slot_27: WR_(8) + WR_(12) + WR_(14) + WR_(27) + WR_(34) + WR_(37) + WR_(44) + 
WR_(84) = 1
slot_26: WR_(38) + WR_(83) = 1
slot_25: WR_(22) + WR_(29) + WR_(37) + WR_(82) = 1
slot_24: WR_(36) + WR_(81) = 1
slot_23: WR_(51) + WR_(80) = 1
slot_22: WR_(30) + WR_(31) + WR_(36) + WR_(50) + WR_(79) = 1
slot_21: WR_(35) + WR_(78) = 1
slot_20: WR_(34) + WR_(77) = 1
slot_19: WR_(11) + WR_(76) = 1
slot_18: WR_(10) + WR_(40) + WR_(75) = 1
slot_17: WR_(9) + WR_(74) = 1
slot_16: WR_(8) + WR_(73) = 1
slot_15: WR_(49) + WR_(72) = 1
slot_14: WR_(33) + WR_(71) = 1
slot_13: WR_(26) + WR_(32) + WR_(70) = 1
slot_12: WR_(7) + WR_(69) = 1
slot_11: WR_(6) + WR_(39) + WR_(68) = 1
slot_10: WR_(5) + WR_(20) + WR_(21) + WR_(33) + WR_(45) + WR_(46) + WR_(67) = 1
slot_9: WR_(48) + WR_(66) = 1
slot_8: WR_(11) + WR_(31) + WR_(65) = 1
slot_7: WR_(4) + WR_(64) = 1
slot_6: WR_(3) + WR_(63) = 1
slot_5: WR_(2) + WR_(62) = 1
slot_4: WR_(11) + WR_(30) + WR_(61) = 1
slot_3: WR_(1) + WR_(3) + WR_(60) = 1
slot_2: WR_(0) + WR_(8) + WR_(14) + WR_(27) + WR_(34) + WR_(44) + WR_(59) = 1
slot_1: WR_(16) + WR_(41) + WR_(47) + WR_(58) = 1
slot: = 0

Bounds

Binaries
WR_(0) WR_(1) WR_(2) WR_(3) WR_(4) WR_(5) WR_(6) WR_(7) WR_(8) WR_(9) WR_(10) 
WR_(11) WR_(12) WR_(13) WR_(14) WR_(15) WR_(16) WR_(17) WR_(18) WR_(19) WR_(20) 
WR_(21) WR_(22) WR_(23) WR_(24) WR_(25) WR_(26) WR_(27) WR_(28) WR_(29) WR_(30) 
WR_(31) WR_(32) WR_(33) WR_(34) WR_(35) WR_(36) WR_(37) WR_(38) WR_(39) WR_(40) 
WR_(41) WR_(42) WR_(43) WR_(44) WR_(45) WR_(46) WR_(47) WR_(48) WR_(49) WR_(50) 
WR_(51) WR_(52) WR_(53) WR_(54) WR_(55) WR_(56) WR_(57) WR_(58) WR_(59) WR_(60) 
WR_(61) WR_(62) WR_(63) WR_(64) WR_(65) WR_(66) WR_(67) WR_(68) WR_(69) WR_(70) 
WR_(71) WR_(72) WR_(73) WR_(74) WR_(75) WR_(76) WR_(77) WR_(78) WR_(79) WR_(80) 
WR_(81) WR_(82) WR_(83) WR_(84) WR_(85) WR_(86) WR_(87) WR_(88) WR_(89) WR_(90) 
WR_(91) WR_(92) WR_(93) WR_(94) WR_(95) WR_(96) WR_(97) WR_(98) WR_(99) WR_(100) 
WR_(101) WR_(102) WR_(103) WR_(104) WR_(105) WR_(106) WR_(107) WR_(108) WR_(109) 
WR_(110) WR_(111) WR_(112) WR_(113) WR_(114) WR_(115) 

End
