IntegratedHealthCareS/slot.mps
NAME          Slots selection
ROWS
 N  *OBJ*
 E  slot_75
 E  slot_74
 E  slot_73
 E  slot_72
 E  slot_71
 E  slot_70
 E  slot_69
 E  slot_68
 E  slot_67
 E  slot_66
 E  slot_65
 E  slot_64
 E  slot_63
 E  slot_62
 E  slot_61
 E  slot_60
 E  slot_59
 E  slot_58
 E  slot_57
 E  slot_56
 E  slot_55
 E  slot_54
 E  slot_53
 E  slot_52
 E  slot_51
 E  slot_50
 E  slot_49
 E  slot_48
 E  slot_47
 E  slot_46
 E  slot_45
 E  slot_44
 E  slot_43
 E  slot_42
 E  slot_41
 E  slot_40
 E  slot_39
 E  slot_38
 E  slot_37
 E  slot_36
 E  slot_35
 E  slot_34
 E  slot_33
 E  slot_32
 E  slot_31
 E  slot_30
 E  slot_29
 E  slot_28
 E  slot_27
 E  slot_26
 E  slot_25
 E  slot_24
 E  slot_23
 E  slot_22
 E  slot_21
 E  slot_20
 E  slot_19
 E  slot_18
 E  slot_17
 E  slot_16
 E  slot_15
 E  slot_14
 E  slot_13
 E  slot_12
 E  slot_11
 E  slot_10
 E  slot_9
 E  slot_8
 E  slot_7
 E  slot_6
 E  slot_5
 E  slot_4
 E  slot_3
 E  slot_2
 E  slot_1

COLUMNS
    WR_(0)    slot_1    1
    WR_(0)    slot_3    1
    WR_(0)    *OBJ*     61
    WR_(1)    slot_4    1
    WR_(1)    *OBJ*     1.00005e+006
    WR_(2)    slot_6    1
    WR_(2)    slot_22   1
    WR_(2)    *OBJ*     125
    WR_(3)    slot_8    1
    WR_(3)    slot_27   1
    WR_(3)    *OBJ*     64
    WR_(4)    slot_9    1
    WR_(4)    *OBJ*     1.00003e+006
    WR_(5)    slot_12   1
    WR_(5)    *OBJ*     1.00003e+006
    WR_(6)    slot_13   1
    WR_(6)    slot_27   1
    WR_(6)    *OBJ*     100
    WR_(7)    slot_14   1
    WR_(7)    *OBJ*     1.00003e+006
    WR_(8)    slot_15   1
    WR_(8)    *OBJ*     1.00006e+006
    WR_(9)    slot_21   1
    WR_(9)    slot_27   1
    WR_(9)    *OBJ*     126
    WR_(10)   slot_22   1
    WR_(10)   *OBJ*     1.00009e+006
    WR_(11)   slot_23   1
    WR_(11)   *OBJ*     1.00003e+006
    WR_(12)   slot_33   1
    WR_(12)   *OBJ*     1.00008e+006
    WR_(13)   slot_16   1
    WR_(13)   slot_17   1
    WR_(13)   slot_35   1
    WR_(13)   *OBJ*     135
    WR_(14)   slot_27   1
    WR_(14)   slot_36   1
    WR_(14)   *OBJ*     125
    WR_(15)   slot_39   1
    WR_(15)   *OBJ*     1.00006e+006
    WR_(16)   slot_44   1
    WR_(16)   *OBJ*     1.00005e+006
    WR_(17)   slot_40   1
    WR_(17)   slot_41   1
    WR_(17)   slot_46   1
    WR_(17)   *OBJ*     253
    WR_(18)   slot_47   1
    WR_(18)   *OBJ*     1.00012e+006
    WR_(19)   slot_50   1
    WR_(19)   slot_75   1
    WR_(19)   *OBJ*     69
    WR_(20)   slot_47   1
    WR_(20)   slot_51   1
    WR_(20)   *OBJ*     183
    WR_(21)   slot_58   1
    WR_(21)   slot_71   1
    WR_(21)   *OBJ*     97
    WR_(22)   slot_61   1
    WR_(22)   *OBJ*     1.00009e+006
    WR_(23)   slot_40   1
    WR_(23)   slot_41   1
    WR_(23)   slot_63   1
    WR_(23)   *OBJ*     285
    WR_(24)   slot_45   1
    WR_(24)   slot_64   1
    WR_(24)   *OBJ*     159
    WR_(25)   slot_66   1
    WR_(25)   *OBJ*     1.00006e+006
    WR_(26)   slot_74   1
    WR_(26)   *OBJ*     1.00009e+006
    WR_(27)   slot_75   1
    WR_(27)   *OBJ*     1.00003e+006
    WR_(28)   slot_3    1
    WR_(28)   *OBJ*     1.00003e+006
    WR_(29)   slot_16   1
    WR_(29)   *OBJ*     1.00006e+006
    WR_(30)   slot_5    1
    WR_(30)   slot_17   1
    WR_(30)   slot_26   1
    WR_(30)   *OBJ*     156
    WR_(31)   slot_18   1
    WR_(31)   *OBJ*     1.00003e+006
    WR_(32)   slot_19   1
    WR_(32)   slot_31   1
    WR_(32)   *OBJ*     66
    WR_(33)   slot_20   1
    WR_(33)   *OBJ*     1.00003e+006
    WR_(34)   slot_10   1
    WR_(34)   slot_24   1
    WR_(34)   *OBJ*     130
    WR_(35)   slot_25   1
    WR_(35)   *OBJ*     1.00003e+006
    WR_(36)   slot_27   1
    WR_(36)   *OBJ*     1.00003e+006
    WR_(37)   slot_7    1
    WR_(37)   slot_28   1
    WR_(37)   *OBJ*     136
    WR_(38)   slot_34   1
    WR_(38)   *OBJ*     1.00009e+006
    WR_(39)   slot_40   1
    WR_(39)   *OBJ*     1.00008e+006
    WR_(40)   slot_41   1
    WR_(40)   *OBJ*     1.00012e+006
    WR_(41)   slot_42   1
    WR_(41)   *OBJ*     1.00003e+006
    WR_(42)   slot_43   1
    WR_(42)   *OBJ*     1.00003e+006
    WR_(43)   slot_45   1
    WR_(43)   *OBJ*     1.00008e+006
    WR_(44)   slot_44   1
    WR_(44)   slot_53   1
    WR_(44)   *OBJ*     145
    WR_(45)   slot_54   1
    WR_(45)   slot_75   1
    WR_(45)   *OBJ*     62
    WR_(46)   slot_56   1
    WR_(46)   *OBJ*     1.00003e+006
    WR_(47)   slot_57   1
    WR_(47)   *OBJ*     1.00003e+006
    WR_(48)   slot_59   1
    WR_(48)   *OBJ*     1.00003e+006
    WR_(49)   slot_38   1
    WR_(49)   slot_60   1
    WR_(49)   slot_62   1
    WR_(49)   *OBJ*     151
    WR_(50)   slot_68   1
    WR_(50)   *OBJ*     1.00008e+006
    WR_(51)   slot_70   1
    WR_(51)   *OBJ*     1.00003e+006
    WR_(52)   slot_71   1
    WR_(52)   *OBJ*     1.00003e+006
    WR_(53)   slot_72   1
    WR_(53)   *OBJ*     1.00003e+006
    WR_(54)   slot_73   1
    WR_(54)   *OBJ*     1.00003e+006
    WR_(55)   slot_2    1
    WR_(55)   *OBJ*     1.00009e+006
    WR_(56)   slot_5    1
    WR_(56)   *OBJ*     1.00003e+006
    WR_(57)   slot_7    1
    WR_(57)   *OBJ*     1.00006e+006
    WR_(58)   slot_10   1
    WR_(58)   *OBJ*     1.00003e+006
    WR_(59)   slot_11   1
    WR_(59)   *OBJ*     1.00003e+006
    WR_(60)   slot_26   1
    WR_(60)   *OBJ*     1.00009e+006
    WR_(61)   slot_29   1
    WR_(61)   *OBJ*     1.00006e+006
    WR_(62)   slot_30   1
    WR_(62)   *OBJ*     1.00003e+006
    WR_(63)   slot_31   1
    WR_(63)   *OBJ*     1.00003e+006
    WR_(64)   slot_32   1
    WR_(64)   *OBJ*     1.00012e+006
    WR_(65)   slot_37   1
    WR_(65)   *OBJ*     1.00008e+006
    WR_(66)   slot_38   1
    WR_(66)   *OBJ*     1.00006e+006
    WR_(67)   slot_48   1
    WR_(67)   *OBJ*     1.00003e+006
    WR_(68)   slot_49   1
    WR_(68)   *OBJ*     1.00006e+006
    WR_(69)   slot_52   1
    WR_(69)   *OBJ*     1.00003e+006
    WR_(70)   slot_55   1
    WR_(70)   *OBJ*     1.00006e+006
    WR_(71)   slot_60   1
    WR_(71)   *OBJ*     1.00003e+006
    WR_(72)   slot_65   1
    WR_(72)   *OBJ*     1.00008e+006
    WR_(73)   slot_67   1
    WR_(73)   *OBJ*     1.00005e+006
    WR_(74)   slot_69   1
    WR_(74)   *OBJ*     1.00003e+006
    WR_(75)   slot_1    1
    WR_(75)   slot_3    1
    WR_(75)   *OBJ*     61
    WR_(76)   slot_2    1
    WR_(76)   slot_4    1
    WR_(76)   slot_9    1
    WR_(76)   slot_11   1
    WR_(76)   slot_12   1
    WR_(76)   slot_14   1
    WR_(76)   *OBJ*     270
    WR_(77)   slot_6    1
    WR_(77)   slot_22   1
    WR_(77)   *OBJ*     125
    WR_(78)   slot_8    1
    WR_(78)   slot_13   1
    WR_(78)   slot_21   1
    WR_(78)   *OBJ*     197
    WR_(79)   slot_2    1
    WR_(79)   slot_9    1
    WR_(79)   slot_11   1
    WR_(79)   slot_12   1
    WR_(79)   *OBJ*     185
    WR_(80)   slot_2    1
    WR_(80)   slot_9    1
    WR_(80)   slot_11   1
    WR_(80)   slot_12   1
    WR_(80)   *OBJ*     186
    WR_(81)   slot_8    1
    WR_(81)   slot_13   1
    WR_(81)   slot_21   1
    WR_(81)   slot_36   1
    WR_(81)   *OBJ*     286
    WR_(82)   slot_2    1
    WR_(82)   slot_9    1
    WR_(82)   slot_11   1
    WR_(82)   slot_12   1
    WR_(82)   slot_14   1
    WR_(82)   *OBJ*     219
    WR_(83)   slot_15   1
    WR_(83)   *OBJ*     1.00006e+006
    WR_(84)   slot_8    1
    WR_(84)   slot_13   1
    WR_(84)   slot_21   1
    WR_(84)   slot_36   1
    WR_(84)   *OBJ*     286
    WR_(85)   slot_6    1
    WR_(85)   slot_22   1
    WR_(85)   *OBJ*     125
    WR_(86)   slot_23   1
    WR_(86)   *OBJ*     1.00003e+006
    WR_(87)   slot_33   1
    WR_(87)   *OBJ*     1.00008e+006
    WR_(88)   slot_16   1
    WR_(88)   slot_17   1
    WR_(88)   slot_35   1
    WR_(88)   *OBJ*     135
    WR_(89)   slot_8    1
    WR_(89)   slot_13   1
    WR_(89)   slot_21   1
    WR_(89)   slot_36   1
    WR_(89)   *OBJ*     288
    WR_(90)   slot_39   1
    WR_(90)   slot_66   1
    WR_(90)   *OBJ*     129
    WR_(91)   slot_44   1
    WR_(91)   slot_53   1
    WR_(91)   *OBJ*     145
    WR_(92)   slot_46   1
    WR_(92)   slot_50   1
    WR_(92)   slot_75   1
    WR_(92)   *OBJ*     124
    WR_(93)   slot_47   1
    WR_(93)   slot_51   1
    WR_(93)   *OBJ*     183
    WR_(94)   slot_50   1
    WR_(94)   slot_75   1
    WR_(94)   *OBJ*     69
    WR_(95)   slot_47   1
    WR_(95)   slot_51   1
    WR_(95)   *OBJ*     183
    WR_(96)   slot_58   1
    WR_(96)   slot_71   1
    WR_(96)   *OBJ*     97
    WR_(97)   slot_61   1
    WR_(97)   *OBJ*     1.00009e+006
    WR_(98)   slot_40   1
    WR_(98)   slot_41   1
    WR_(98)   slot_63   1
    WR_(98)   *OBJ*     285
    WR_(99)   slot_45   1
    WR_(99)   slot_64   1
    WR_(99)   *OBJ*     159
    WR_(100)  slot_39   1
    WR_(100)  slot_66   1
    WR_(100)  *OBJ*     129
    WR_(101)  slot_74   1
    WR_(101)  *OBJ*     1.00009e+006
    WR_(102)  slot_50   1
    WR_(102)  slot_75   1
    WR_(102)  *OBJ*     69
    WR_(103)  slot_3    1
    WR_(103)  *OBJ*     1.00003e+006
    WR_(104)  slot_5    1
    WR_(104)  slot_16   1
    WR_(104)  slot_17   1
    WR_(104)  slot_26   1
    WR_(104)  *OBJ*     225
    WR_(105)  slot_16   1
    WR_(105)  slot_17   1
    WR_(105)  *OBJ*     99
    WR_(106)  slot_18   1
    WR_(106)  *OBJ*     1.00003e+006
    WR_(107)  slot_19   1
    WR_(107)  slot_25   1
    WR_(107)  *OBJ*     68
    WR_(108)  slot_20   1
    WR_(108)  *OBJ*     1.00003e+006
    WR_(109)  slot_10   1
    WR_(109)  slot_18   1
    WR_(109)  slot_24   1
    WR_(109)  *OBJ*     161
    WR_(110)  slot_25   1
    WR_(110)  *OBJ*     1.00003e+006
    WR_(111)  slot_27   1
    WR_(111)  *OBJ*     1.00003e+006
    WR_(112)  slot_7    1
    WR_(112)  slot_28   1
    WR_(112)  *OBJ*     136
    WR_(113)  slot_34   1
    WR_(113)  *OBJ*     1.00009e+006
    WR_(114)  slot_40   1
    WR_(114)  slot_41   1
    WR_(114)  *OBJ*     201
    WR_(115)  slot_40   1
    WR_(115)  slot_41   1
    WR_(115)  *OBJ*     201
    WR_(116)  slot_42   1
    WR_(116)  *OBJ*     1.00003e+006
    WR_(117)  slot_43   1
    WR_(117)  *OBJ*     1.00003e+006
    WR_(118)  slot_45   1
    WR_(118)  *OBJ*     1.00008e+006
    WR_(119)  slot_44   1
    WR_(119)  slot_53   1
    WR_(119)  *OBJ*     145
    WR_(120)  slot_54   1
    WR_(120)  slot_75   1
    WR_(120)  *OBJ*     62
    WR_(121)  slot_45   1
    WR_(121)  slot_56   1
    WR_(121)  slot_60   1
    WR_(121)  *OBJ*     151
    WR_(122)  slot_57   1
    WR_(122)  *OBJ*     1.00003e+006
    WR_(123)  slot_59   1
    WR_(123)  slot_70   1
    WR_(123)  *OBJ*     68
    WR_(124)  slot_45   1
    WR_(124)  slot_56   1
    WR_(124)  slot_62   1
    WR_(124)  *OBJ*     169
    WR_(125)  slot_68   1
    WR_(125)  *OBJ*     1.00008e+006
    WR_(126)  slot_59   1
    WR_(126)  slot_70   1
    WR_(126)  *OBJ*     68
    WR_(127)  slot_71   1
    WR_(127)  *OBJ*     1.00003e+006
    WR_(128)  slot_72   1
    WR_(128)  *OBJ*     1.00003e+006
    WR_(129)  slot_59   1
    WR_(129)  slot_70   1
    WR_(129)  slot_73   1
    WR_(129)  *OBJ*     101
    WR_(130)  slot_2    1
    WR_(130)  slot_9    1
    WR_(130)  slot_11   1
    WR_(130)  slot_12   1
    WR_(130)  *OBJ*     187
    WR_(131)  slot_5    1
    WR_(131)  slot_26   1
    WR_(131)  *OBJ*     121
    WR_(132)  slot_7    1
    WR_(132)  *OBJ*     1.00006e+006
    WR_(133)  slot_10   1
    WR_(133)  *OBJ*     1.00003e+006
    WR_(134)  slot_2    1
    WR_(134)  slot_9    1
    WR_(134)  slot_11   1
    WR_(134)  slot_12   1
    WR_(134)  *OBJ*     186
    WR_(135)  slot_26   1
    WR_(135)  *OBJ*     1.00009e+006
    WR_(136)  slot_29   1
    WR_(136)  *OBJ*     1.00006e+006
    WR_(137)  slot_30   1
    WR_(137)  *OBJ*     1.00003e+006
    WR_(138)  slot_31   1
    WR_(138)  *OBJ*     1.00003e+006
    WR_(139)  slot_32   1
    WR_(139)  *OBJ*     1.00012e+006
    WR_(140)  slot_37   1
    WR_(140)  slot_69   1
    WR_(140)  *OBJ*     114
    WR_(141)  slot_38   1
    WR_(141)  *OBJ*     1.00006e+006
    WR_(142)  slot_48   1
    WR_(142)  *OBJ*     1.00003e+006
    WR_(143)  slot_49   1
    WR_(143)  *OBJ*     1.00006e+006
    WR_(144)  slot_44   1
    WR_(144)  slot_52   1
    WR_(144)  *OBJ*     83
    WR_(145)  slot_55   1
    WR_(145)  *OBJ*     1.00006e+006
    WR_(146)  slot_38   1
    WR_(146)  slot_60   1
    WR_(146)  *OBJ*     96
    WR_(147)  slot_65   1
    WR_(147)  *OBJ*     1.00008e+006
    WR_(148)  slot_67   1
    WR_(148)  *OBJ*     1.00005e+006
    WR_(149)  slot_37   1
    WR_(149)  slot_69   1
    WR_(149)  *OBJ*     114
    WR_(150)  slot_1    1
    WR_(150)  slot_3    1
    WR_(150)  *OBJ*     61
    WR_(151)  slot_2    1
    WR_(151)  slot_4    1
    WR_(151)  slot_9    1
    WR_(151)  slot_12   1
    WR_(151)  slot_14   1
    WR_(151)  *OBJ*     237
    WR_(152)  slot_6    1
    WR_(152)  slot_22   1
    WR_(152)  *OBJ*     125
    WR_(153)  slot_8    1
    WR_(153)  slot_13   1
    WR_(153)  slot_27   1
    WR_(153)  *OBJ*     137
    WR_(154)  slot_2    1
    WR_(154)  slot_9    1
    WR_(154)  slot_11   1
    WR_(154)  slot_12   1
    WR_(154)  *OBJ*     186
    WR_(155)  slot_2    1
    WR_(155)  slot_9    1
    WR_(155)  slot_11   1
    WR_(155)  slot_12   1
    WR_(155)  *OBJ*     188
    WR_(156)  slot_13   1
    WR_(156)  slot_27   1
    WR_(156)  *OBJ*     100
    WR_(157)  slot_2    1
    WR_(157)  slot_9    1
    WR_(157)  slot_11   1
    WR_(157)  slot_12   1
    WR_(157)  slot_14   1
    WR_(157)  *OBJ*     220
    WR_(158)  slot_15   1
    WR_(158)  *OBJ*     1.00006e+006
    WR_(159)  slot_21   1
    WR_(159)  slot_27   1
    WR_(159)  *OBJ*     126
    WR_(160)  slot_22   1
    WR_(160)  *OBJ*     1.00009e+006
    WR_(161)  slot_23   1
    WR_(161)  *OBJ*     1.00003e+006
    WR_(162)  slot_33   1
    WR_(162)  *OBJ*     1.00008e+006
    WR_(163)  slot_16   1
    WR_(163)  slot_17   1
    WR_(163)  slot_35   1
    WR_(163)  *OBJ*     135
    WR_(164)  slot_27   1
    WR_(164)  slot_36   1
    WR_(164)  *OBJ*     125
    WR_(165)  slot_39   1
    WR_(165)  *OBJ*     1.00006e+006
    WR_(166)  slot_44   1
    WR_(166)  *OBJ*     1.00005e+006
    WR_(167)  slot_40   1
    WR_(167)  slot_41   1
    WR_(167)  slot_46   1
    WR_(167)  *OBJ*     253
    WR_(168)  slot_47   1
    WR_(168)  *OBJ*     1.00012e+006
    WR_(169)  slot_50   1
    WR_(169)  slot_75   1
    WR_(169)  *OBJ*     69
    WR_(170)  slot_47   1
    WR_(170)  slot_51   1
    WR_(170)  *OBJ*     183
    WR_(171)  slot_58   1
    WR_(171)  slot_71   1
    WR_(171)  *OBJ*     97
    WR_(172)  slot_61   1
    WR_(172)  *OBJ*     1.00009e+006
    WR_(173)  slot_40   1
    WR_(173)  slot_41   1
    WR_(173)  slot_63   1
    WR_(173)  *OBJ*     285
    WR_(174)  slot_45   1
    WR_(174)  slot_64   1
    WR_(174)  *OBJ*     159
    WR_(175)  slot_66   1
    WR_(175)  *OBJ*     1.00006e+006
    WR_(176)  slot_74   1
    WR_(176)  *OBJ*     1.00009e+006
    WR_(177)  slot_75   1
    WR_(177)  *OBJ*     1.00003e+006
    WR_(178)  slot_3    1
    WR_(178)  *OBJ*     1.00003e+006
    WR_(179)  slot_16   1
    WR_(179)  *OBJ*     1.00006e+006
    WR_(180)  slot_16   1
    WR_(180)  slot_17   1
    WR_(180)  *OBJ*     99
    WR_(181)  slot_18   1
    WR_(181)  *OBJ*     1.00003e+006
    WR_(182)  slot_19   1
    WR_(182)  slot_25   1
    WR_(182)  *OBJ*     68
    WR_(183)  slot_20   1
    WR_(183)  *OBJ*     1.00003e+006
    WR_(184)  slot_10   1
    WR_(184)  slot_24   1
    WR_(184)  *OBJ*     130
    WR_(185)  slot_25   1
    WR_(185)  *OBJ*     1.00003e+006
    WR_(186)  slot_27   1
    WR_(186)  *OBJ*     1.00003e+006
    WR_(187)  slot_7    1
    WR_(187)  slot_28   1
    WR_(187)  *OBJ*     136
    WR_(188)  slot_34   1
    WR_(188)  *OBJ*     1.00009e+006
    WR_(189)  slot_40   1
    WR_(189)  *OBJ*     1.00008e+006
    WR_(190)  slot_41   1
    WR_(190)  *OBJ*     1.00012e+006
    WR_(191)  slot_42   1
    WR_(191)  *OBJ*     1.00003e+006
    WR_(192)  slot_43   1
    WR_(192)  *OBJ*     1.00003e+006
    WR_(193)  slot_45   1
    WR_(193)  *OBJ*     1.00008e+006
    WR_(194)  slot_44   1
    WR_(194)  slot_53   1
    WR_(194)  *OBJ*     145
    WR_(195)  slot_54   1
    WR_(195)  slot_75   1
    WR_(195)  *OBJ*     62
    WR_(196)  slot_45   1
    WR_(196)  slot_56   1
    WR_(196)  slot_60   1
    WR_(196)  *OBJ*     151
    WR_(197)  slot_57   1
    WR_(197)  *OBJ*     1.00003e+006
    WR_(198)  slot_59   1
    WR_(198)  slot_70   1
    WR_(198)  *OBJ*     68
    WR_(199)  slot_60   1
    WR_(199)  slot_62   1
    WR_(199)  *OBJ*     85
    WR_(200)  slot_68   1
    WR_(200)  *OBJ*     1.00008e+006
    WR_(201)  slot_59   1
    WR_(201)  slot_70   1
    WR_(201)  *OBJ*     68
    WR_(202)  slot_71   1
    WR_(202)  *OBJ*     1.00003e+006
    WR_(203)  slot_72   1
    WR_(203)  *OBJ*     1.00003e+006
    WR_(204)  slot_59   1
    WR_(204)  slot_73   1
    WR_(204)  *OBJ*     63
    WR_(205)  slot_2    1
    WR_(205)  *OBJ*     1.00009e+006
    WR_(206)  slot_5    1
    WR_(206)  slot_26   1
    WR_(206)  *OBJ*     121
    WR_(207)  slot_7    1
    WR_(207)  *OBJ*     1.00006e+006
    WR_(208)  slot_10   1
    WR_(208)  *OBJ*     1.00003e+006
    WR_(209)  slot_9    1
    WR_(209)  slot_11   1
    WR_(209)  *OBJ*     62
    WR_(210)  slot_26   1
    WR_(210)  *OBJ*     1.00009e+006
    WR_(211)  slot_29   1
    WR_(211)  *OBJ*     1.00006e+006
    WR_(212)  slot_30   1
    WR_(212)  *OBJ*     1.00003e+006
    WR_(213)  slot_31   1
    WR_(213)  *OBJ*     1.00003e+006
    WR_(214)  slot_32   1
    WR_(214)  *OBJ*     1.00012e+006
    WR_(215)  slot_37   1
    WR_(215)  *OBJ*     1.00008e+006
    WR_(216)  slot_38   1
    WR_(216)  *OBJ*     1.00006e+006
    WR_(217)  slot_48   1
    WR_(217)  *OBJ*     1.00003e+006
    WR_(218)  slot_49   1
    WR_(218)  *OBJ*     1.00006e+006
    WR_(219)  slot_44   1
    WR_(219)  slot_52   1
    WR_(219)  *OBJ*     83
    WR_(220)  slot_55   1
    WR_(220)  *OBJ*     1.00006e+006
    WR_(221)  slot_38   1
    WR_(221)  slot_60   1
    WR_(221)  *OBJ*     96
    WR_(222)  slot_65   1
    WR_(222)  *OBJ*     1.00008e+006
    WR_(223)  slot_67   1
    WR_(223)  *OBJ*     1.00005e+006
    WR_(224)  slot_37   1
    WR_(224)  slot_69   1
    WR_(224)  *OBJ*     114
    WR_(225)  slot_1    1
    WR_(225)  *OBJ*     1.00003e+006
    WR_(226)  slot_2    1
    WR_(226)  *OBJ*     1.00009e+006
    WR_(227)  slot_3    1
    WR_(227)  *OBJ*     1.00003e+006
    WR_(228)  slot_4    1
    WR_(228)  *OBJ*     1.00005e+006
    WR_(229)  slot_5    1
    WR_(229)  *OBJ*     1.00003e+006
    WR_(230)  slot_6    1
    WR_(230)  *OBJ*     1.00003e+006
    WR_(231)  slot_7    1
    WR_(231)  *OBJ*     1.00006e+006
    WR_(232)  slot_8    1
    WR_(232)  *OBJ*     1.00003e+006
    WR_(233)  slot_9    1
    WR_(233)  *OBJ*     1.00003e+006
    WR_(234)  slot_10   1
    WR_(234)  *OBJ*     1.00003e+006
    WR_(235)  slot_11   1
    WR_(235)  *OBJ*     1.00003e+006
    WR_(236)  slot_12   1
    WR_(236)  *OBJ*     1.00003e+006
    WR_(237)  slot_13   1
    WR_(237)  *OBJ*     1.00006e+006
    WR_(238)  slot_14   1
    WR_(238)  *OBJ*     1.00003e+006
    WR_(239)  slot_15   1
    WR_(239)  *OBJ*     1.00006e+006
    WR_(240)  slot_16   1
    WR_(240)  *OBJ*     1.00006e+006
    WR_(241)  slot_17   1
    WR_(241)  *OBJ*     1.00003e+006
    WR_(242)  slot_18   1
    WR_(242)  *OBJ*     1.00003e+006
    WR_(243)  slot_19   1
    WR_(243)  *OBJ*     1.00003e+006
    WR_(244)  slot_20   1
    WR_(244)  *OBJ*     1.00003e+006
    WR_(245)  slot_21   1
    WR_(245)  *OBJ*     1.00009e+006
    WR_(246)  slot_22   1
    WR_(246)  *OBJ*     1.00009e+006
    WR_(247)  slot_23   1
    WR_(247)  *OBJ*     1.00003e+006
    WR_(248)  slot_24   1
    WR_(248)  *OBJ*     1.00009e+006
    WR_(249)  slot_25   1
    WR_(249)  *OBJ*     1.00003e+006
    WR_(250)  slot_26   1
    WR_(250)  *OBJ*     1.00009e+006
    WR_(251)  slot_27   1
    WR_(251)  *OBJ*     1.00003e+006
    WR_(252)  slot_28   1
    WR_(252)  *OBJ*     1.00008e+006
    WR_(253)  slot_29   1
    WR_(253)  *OBJ*     1.00006e+006
    WR_(254)  slot_30   1
    WR_(254)  *OBJ*     1.00003e+006
    WR_(255)  slot_31   1
    WR_(255)  *OBJ*     1.00003e+006
    WR_(256)  slot_32   1
    WR_(256)  *OBJ*     1.00012e+006
    WR_(257)  slot_33   1
    WR_(257)  *OBJ*     1.00008e+006
    WR_(258)  slot_34   1
    WR_(258)  *OBJ*     1.00009e+006
    WR_(259)  slot_35   1
    WR_(259)  *OBJ*     1.00003e+006
    WR_(260)  slot_36   1
    WR_(260)  *OBJ*     1.00009e+006
    WR_(261)  slot_37   1
    WR_(261)  *OBJ*     1.00008e+006
    WR_(262)  slot_38   1
    WR_(262)  *OBJ*     1.00006e+006
    WR_(263)  slot_39   1
    WR_(263)  *OBJ*     1.00006e+006
    WR_(264)  slot_40   1
    WR_(264)  *OBJ*     1.00008e+006
    WR_(265)  slot_41   1
    WR_(265)  *OBJ*     1.00012e+006
    WR_(266)  slot_42   1
    WR_(266)  *OBJ*     1.00003e+006
    WR_(267)  slot_43   1
    WR_(267)  *OBJ*     1.00003e+006
    WR_(268)  slot_44   1
    WR_(268)  *OBJ*     1.00005e+006
    WR_(269)  slot_45   1
    WR_(269)  *OBJ*     1.00008e+006
    WR_(270)  slot_46   1
    WR_(270)  *OBJ*     1.00005e+006
    WR_(271)  slot_47   1
    WR_(271)  *OBJ*     1.00012e+006
    WR_(272)  slot_48   1
    WR_(272)  *OBJ*     1.00003e+006
    WR_(273)  slot_49   1
    WR_(273)  *OBJ*     1.00006e+006
    WR_(274)  slot_50   1
    WR_(274)  *OBJ*     1.00003e+006
    WR_(275)  slot_51   1
    WR_(275)  *OBJ*     1.00006e+006
    WR_(276)  slot_52   1
    WR_(276)  *OBJ*     1.00003e+006
    WR_(277)  slot_53   1
    WR_(277)  *OBJ*     1.00009e+006
    WR_(278)  slot_54   1
    WR_(278)  *OBJ*     1.00003e+006
    WR_(279)  slot_55   1
    WR_(279)  *OBJ*     1.00006e+006
    WR_(280)  slot_56   1
    WR_(280)  *OBJ*     1.00003e+006
    WR_(281)  slot_57   1
    WR_(281)  *OBJ*     1.00003e+006
    WR_(282)  slot_58   1
    WR_(282)  *OBJ*     1.00006e+006
    WR_(283)  slot_59   1
    WR_(283)  *OBJ*     1.00003e+006
    WR_(284)  slot_60   1
    WR_(284)  *OBJ*     1.00003e+006
    WR_(285)  slot_61   1
    WR_(285)  *OBJ*     1.00009e+006
    WR_(286)  slot_62   1
    WR_(286)  *OBJ*     1.00005e+006
    WR_(287)  slot_63   1
    WR_(287)  *OBJ*     1.00008e+006
    WR_(288)  slot_64   1
    WR_(288)  *OBJ*     1.00008e+006
    WR_(289)  slot_65   1
    WR_(289)  *OBJ*     1.00008e+006
    WR_(290)  slot_66   1
    WR_(290)  *OBJ*     1.00006e+006
    WR_(291)  slot_67   1
    WR_(291)  *OBJ*     1.00005e+006
    WR_(292)  slot_68   1
    WR_(292)  *OBJ*     1.00008e+006
    WR_(293)  slot_69   1
    WR_(293)  *OBJ*     1.00003e+006
    WR_(294)  slot_70   1
    WR_(294)  *OBJ*     1.00003e+006
    WR_(295)  slot_71   1
    WR_(295)  *OBJ*     1.00003e+006
    WR_(296)  slot_72   1
    WR_(296)  *OBJ*     1.00003e+006
    WR_(297)  slot_73   1
    WR_(297)  *OBJ*     1.00003e+006
    WR_(298)  slot_74   1
    WR_(298)  *OBJ*     1.00009e+006
    WR_(299)  slot_75   1
    WR_(299)  *OBJ*     1.00003e+006

RHS
    *RHS*     slot_75   1
    *RHS*     slot_74   1
    *RHS*     slot_73   1
    *RHS*     slot_72   1
    *RHS*     slot_71   1
    *RHS*     slot_70   1
    *RHS*     slot_69   1
    *RHS*     slot_68   1
    *RHS*     slot_67   1
    *RHS*     slot_66   1
    *RHS*     slot_65   1
    *RHS*     slot_64   1
    *RHS*     slot_63   1
    *RHS*     slot_62   1
    *RHS*     slot_61   1
    *RHS*     slot_60   1
    *RHS*     slot_59   1
    *RHS*     slot_58   1
    *RHS*     slot_57   1
    *RHS*     slot_56   1
    *RHS*     slot_55   1
    *RHS*     slot_54   1
    *RHS*     slot_53   1
    *RHS*     slot_52   1
    *RHS*     slot_51   1
    *RHS*     slot_50   1
    *RHS*     slot_49   1
    *RHS*     slot_48   1
    *RHS*     slot_47   1
    *RHS*     slot_46   1
    *RHS*     slot_45   1
    *RHS*     slot_44   1
    *RHS*     slot_43   1
    *RHS*     slot_42   1
    *RHS*     slot_41   1
    *RHS*     slot_40   1
    *RHS*     slot_39   1
    *RHS*     slot_38   1
    *RHS*     slot_37   1
    *RHS*     slot_36   1
    *RHS*     slot_35   1
    *RHS*     slot_34   1
    *RHS*     slot_33   1
    *RHS*     slot_32   1
    *RHS*     slot_31   1
    *RHS*     slot_30   1
    *RHS*     slot_29   1
    *RHS*     slot_28   1
    *RHS*     slot_27   1
    *RHS*     slot_26   1
    *RHS*     slot_25   1
    *RHS*     slot_24   1
    *RHS*     slot_23   1
    *RHS*     slot_22   1
    *RHS*     slot_21   1
    *RHS*     slot_20   1
    *RHS*     slot_19   1
    *RHS*     slot_18   1
    *RHS*     slot_17   1
    *RHS*     slot_16   1
    *RHS*     slot_15   1
    *RHS*     slot_14   1
    *RHS*     slot_13   1
    *RHS*     slot_12   1
    *RHS*     slot_11   1
    *RHS*     slot_10   1
    *RHS*     slot_9    1
    *RHS*     slot_8    1
    *RHS*     slot_7    1
    *RHS*     slot_6    1
    *RHS*     slot_5    1
    *RHS*     slot_4    1
    *RHS*     slot_3    1
    *RHS*     slot_2    1
    *RHS*     slot_1    1

BOUNDS
 BV *BND*     WR_(0)
 BV *BND*     WR_(1)
 BV *BND*     WR_(2)
 BV *BND*     WR_(3)
 BV *BND*     WR_(4)
 BV *BND*     WR_(5)
 BV *BND*     WR_(6)
 BV *BND*     WR_(7)
 BV *BND*     WR_(8)
 BV *BND*     WR_(9)
 BV *BND*     WR_(10)
 BV *BND*     WR_(11)
 BV *BND*     WR_(12)
 BV *BND*     WR_(13)
 BV *BND*     WR_(14)
 BV *BND*     WR_(15)
 BV *BND*     WR_(16)
 BV *BND*     WR_(17)
 BV *BND*     WR_(18)
 BV *BND*     WR_(19)
 BV *BND*     WR_(20)
 BV *BND*     WR_(21)
 BV *BND*     WR_(22)
 BV *BND*     WR_(23)
 BV *BND*     WR_(24)
 BV *BND*     WR_(25)
 BV *BND*     WR_(26)
 BV *BND*     WR_(27)
 BV *BND*     WR_(28)
 BV *BND*     WR_(29)
 BV *BND*     WR_(30)
 BV *BND*     WR_(31)
 BV *BND*     WR_(32)
 BV *BND*     WR_(33)
 BV *BND*     WR_(34)
 BV *BND*     WR_(35)
 BV *BND*     WR_(36)
 BV *BND*     WR_(37)
 BV *BND*     WR_(38)
 BV *BND*     WR_(39)
 BV *BND*     WR_(40)
 BV *BND*     WR_(41)
 BV *BND*     WR_(42)
 BV *BND*     WR_(43)
 BV *BND*     WR_(44)
 BV *BND*     WR_(45)
 BV *BND*     WR_(46)
 BV *BND*     WR_(47)
 BV *BND*     WR_(48)
 BV *BND*     WR_(49)
 BV *BND*     WR_(50)
 BV *BND*     WR_(51)
 BV *BND*     WR_(52)
 BV *BND*     WR_(53)
 BV *BND*     WR_(54)
 BV *BND*     WR_(55)
 BV *BND*     WR_(56)
 BV *BND*     WR_(57)
 BV *BND*     WR_(58)
 BV *BND*     WR_(59)
 BV *BND*     WR_(60)
 BV *BND*     WR_(61)
 BV *BND*     WR_(62)
 BV *BND*     WR_(63)
 BV *BND*     WR_(64)
 BV *BND*     WR_(65)
 BV *BND*     WR_(66)
 BV *BND*     WR_(67)
 BV *BND*     WR_(68)
 BV *BND*     WR_(69)
 BV *BND*     WR_(70)
 BV *BND*     WR_(71)
 BV *BND*     WR_(72)
 BV *BND*     WR_(73)
 BV *BND*     WR_(74)
 BV *BND*     WR_(75)
 BV *BND*     WR_(76)
 BV *BND*     WR_(77)
 BV *BND*     WR_(78)
 BV *BND*     WR_(79)
 BV *BND*     WR_(80)
 BV *BND*     WR_(81)
 BV *BND*     WR_(82)
 BV *BND*     WR_(83)
 BV *BND*     WR_(84)
 BV *BND*     WR_(85)
 BV *BND*     WR_(86)
 BV *BND*     WR_(87)
 BV *BND*     WR_(88)
 BV *BND*     WR_(89)
 BV *BND*     WR_(90)
 BV *BND*     WR_(91)
 BV *BND*     WR_(92)
 BV *BND*     WR_(93)
 BV *BND*     WR_(94)
 BV *BND*     WR_(95)
 BV *BND*     WR_(96)
 BV *BND*     WR_(97)
 BV *BND*     WR_(98)
 BV *BND*     WR_(99)
 BV *BND*     WR_(100)
 BV *BND*     WR_(101)
 BV *BND*     WR_(102)
 BV *BND*     WR_(103)
 BV *BND*     WR_(104)
 BV *BND*     WR_(105)
 BV *BND*     WR_(106)
 BV *BND*     WR_(107)
 BV *BND*     WR_(108)
 BV *BND*     WR_(109)
 BV *BND*     WR_(110)
 BV *BND*     WR_(111)
 BV *BND*     WR_(112)
 BV *BND*     WR_(113)
 BV *BND*     WR_(114)
 BV *BND*     WR_(115)
 BV *BND*     WR_(116)
 BV *BND*     WR_(117)
 BV *BND*     WR_(118)
 BV *BND*     WR_(119)
 BV *BND*     WR_(120)
 BV *BND*     WR_(121)
 BV *BND*     WR_(122)
 BV *BND*     WR_(123)
 BV *BND*     WR_(124)
 BV *BND*     WR_(125)
 BV *BND*     WR_(126)
 BV *BND*     WR_(127)
 BV *BND*     WR_(128)
 BV *BND*     WR_(129)
 BV *BND*     WR_(130)
 BV *BND*     WR_(131)
 BV *BND*     WR_(132)
 BV *BND*     WR_(133)
 BV *BND*     WR_(134)
 BV *BND*     WR_(135)
 BV *BND*     WR_(136)
 BV *BND*     WR_(137)
 BV *BND*     WR_(138)
 BV *BND*     WR_(139)
 BV *BND*     WR_(140)
 BV *BND*     WR_(141)
 BV *BND*     WR_(142)
 BV *BND*     WR_(143)
 BV *BND*     WR_(144)
 BV *BND*     WR_(145)
 BV *BND*     WR_(146)
 BV *BND*     WR_(147)
 BV *BND*     WR_(148)
 BV *BND*     WR_(149)
 BV *BND*     WR_(150)
 BV *BND*     WR_(151)
 BV *BND*     WR_(152)
 BV *BND*     WR_(153)
 BV *BND*     WR_(154)
 BV *BND*     WR_(155)
 BV *BND*     WR_(156)
 BV *BND*     WR_(157)
 BV *BND*     WR_(158)
 BV *BND*     WR_(159)
 BV *BND*     WR_(160)
 BV *BND*     WR_(161)
 BV *BND*     WR_(162)
 BV *BND*     WR_(163)
 BV *BND*     WR_(164)
 BV *BND*     WR_(165)
 BV *BND*     WR_(166)
 BV *BND*     WR_(167)
 BV *BND*     WR_(168)
 BV *BND*     WR_(169)
 BV *BND*     WR_(170)
 BV *BND*     WR_(171)
 BV *BND*     WR_(172)
 BV *BND*     WR_(173)
 BV *BND*     WR_(174)
 BV *BND*     WR_(175)
 BV *BND*     WR_(176)
 BV *BND*     WR_(177)
 BV *BND*     WR_(178)
 BV *BND*     WR_(179)
 BV *BND*     WR_(180)
 BV *BND*     WR_(181)
 BV *BND*     WR_(182)
 BV *BND*     WR_(183)
 BV *BND*     WR_(184)
 BV *BND*     WR_(185)
 BV *BND*     WR_(186)
 BV *BND*     WR_(187)
 BV *BND*     WR_(188)
 BV *BND*     WR_(189)
 BV *BND*     WR_(190)
 BV *BND*     WR_(191)
 BV *BND*     WR_(192)
 BV *BND*     WR_(193)
 BV *BND*     WR_(194)
 BV *BND*     WR_(195)
 BV *BND*     WR_(196)
 BV *BND*     WR_(197)
 BV *BND*     WR_(198)
 BV *BND*     WR_(199)
 BV *BND*     WR_(200)
 BV *BND*     WR_(201)
 BV *BND*     WR_(202)
 BV *BND*     WR_(203)
 BV *BND*     WR_(204)
 BV *BND*     WR_(205)
 BV *BND*     WR_(206)
 BV *BND*     WR_(207)
 BV *BND*     WR_(208)
 BV *BND*     WR_(209)
 BV *BND*     WR_(210)
 BV *BND*     WR_(211)
 BV *BND*     WR_(212)
 BV *BND*     WR_(213)
 BV *BND*     WR_(214)
 BV *BND*     WR_(215)
 BV *BND*     WR_(216)
 BV *BND*     WR_(217)
 BV *BND*     WR_(218)
 BV *BND*     WR_(219)
 BV *BND*     WR_(220)
 BV *BND*     WR_(221)
 BV *BND*     WR_(222)
 BV *BND*     WR_(223)
 BV *BND*     WR_(224)
 BV *BND*     WR_(225)
 BV *BND*     WR_(226)
 BV *BND*     WR_(227)
 BV *BND*     WR_(228)
 BV *BND*     WR_(229)
 BV *BND*     WR_(230)
 BV *BND*     WR_(231)
 BV *BND*     WR_(232)
 BV *BND*     WR_(233)
 BV *BND*     WR_(234)
 BV *BND*     WR_(235)
 BV *BND*     WR_(236)
 BV *BND*     WR_(237)
 BV *BND*     WR_(238)
 BV *BND*     WR_(239)
 BV *BND*     WR_(240)
 BV *BND*     WR_(241)
 BV *BND*     WR_(242)
 BV *BND*     WR_(243)
 BV *BND*     WR_(244)
 BV *BND*     WR_(245)
 BV *BND*     WR_(246)
 BV *BND*     WR_(247)
 BV *BND*     WR_(248)
 BV *BND*     WR_(249)
 BV *BND*     WR_(250)
 BV *BND*     WR_(251)
 BV *BND*     WR_(252)
 BV *BND*     WR_(253)
 BV *BND*     WR_(254)
 BV *BND*     WR_(255)
 BV *BND*     WR_(256)
 BV *BND*     WR_(257)
 BV *BND*     WR_(258)
 BV *BND*     WR_(259)
 BV *BND*     WR_(260)
 BV *BND*     WR_(261)
 BV *BND*     WR_(262)
 BV *BND*     WR_(263)
 BV *BND*     WR_(264)
 BV *BND*     WR_(265)
 BV *BND*     WR_(266)
 BV *BND*     WR_(267)
 BV *BND*     WR_(268)
 BV *BND*     WR_(269)
 BV *BND*     WR_(270)
 BV *BND*     WR_(271)
 BV *BND*     WR_(272)
 BV *BND*     WR_(273)
 BV *BND*     WR_(274)
 BV *BND*     WR_(275)
 BV *BND*     WR_(276)
 BV *BND*     WR_(277)
 BV *BND*     WR_(278)
 BV *BND*     WR_(279)
 BV *BND*     WR_(280)
 BV *BND*     WR_(281)
 BV *BND*     WR_(282)
 BV *BND*     WR_(283)
 BV *BND*     WR_(284)
 BV *BND*     WR_(285)
 BV *BND*     WR_(286)
 BV *BND*     WR_(287)
 BV *BND*     WR_(288)
 BV *BND*     WR_(289)
 BV *BND*     WR_(290)
 BV *BND*     WR_(291)
 BV *BND*     WR_(292)
 BV *BND*     WR_(293)
 BV *BND*     WR_(294)
 BV *BND*     WR_(295)
 BV *BND*     WR_(296)
 BV *BND*     WR_(297)
 BV *BND*     WR_(298)
 BV *BND*     WR_(299)

ENDATA
